c This is UnifRandomKSATGenerator
c uniform random 3-SAT generated instance with: 
c clause length: 3 
c number variables: 20 
c number clauses: 85 
c clause to variable ratio: 4.27 
c random number generator name: SHA1PRNG 
c random number generator provider: SUN 
c random number generator seed: 6695604585723329493 
p cnf 20 85
-4 19 13 0
-9 -19 12 0
-17 18 -13 0
17 -20 14 0
-19 -16 -8 0
-2 10 13 0
-4 11 6 0
-10 -20 12 0
17 6 -8 0
17 -4 6 0
-18 -20 13 0
-9 -20 -4 0
-1 -20 5 0
18 -12 15 0
9 -3 -13 0
-3 10 -13 0
-1 17 -16 0
-9 -12 6 0
17 4 15 0
-10 3 20 0
16 9 1 0
-4 20 7 0
10 -5 -6 0
1 20 -7 0
-9 -19 -14 0
1 -18 -4 0
10 12 -15 0
10 -19 18 0
8 4 -14 0
1 -4 -14 0
-12 -5 -14 0
-3 -12 -14 0
-1 -20 -16 0
-16 7 -8 0
-10 -13 5 0
9 -4 -6 0
9 10 14 0
8 -9 7 0
1 9 -16 0
-1 9 7 0
1 3 4 0
-19 11 -13 0
-7 15 -16 0
-5 14 -7 0
-9 18 -13 0
18 -15 -16 0
8 9 19 0
16 10 -20 0
-18 12 6 0
2 -12 5 0
-4 12 -15 0
-20 -14 7 0
3 -14 -16 0
-10 -2 19 0
13 -14 -16 0
10 19 4 0
8 18 3 0
3 7 -16 0
9 5 -7 0
17 -19 -3 0
-1 8 -2 0
19 5 -7 0
11 -5 -8 0
9 12 7 0
9 18 3 0
8 -19 6 0
-10 1 -19 0
4 5 -8 0
-17 2 12 0
-17 2 18 0
16 2 -13 0
-2 -11 10 0
-3 11 6 0
-10 4 -8 0
-10 -8 7 0
-2 12 -7 0
-17 11 13 0
10 -15 7 0
-18 -15 -8 0
-15 14 7 0
18 -7 15 0
-11 15 7 0
16 -1 -19 0
-17 11 -5 0
20 5 -16 0
